p tw 130 300
0 1
0 2
0 9
0 10
0 28
0 29
0 39
0 40
0 81
0 82
0 79
0 85
0 69
0 103
0 59
0 102
0 86
0 120
0 54
0 122
0 49
0 109
0 128
0 129
1 2
1 3
1 70
3 4
3 5
3 10
3 21
3 22
3 23
3 32
3 33
3 53
3 54
3 70
3 65
3 81
3 104
3 105
3 44
3 111
3 13
3 101
3 125
3 126
4 5
4 25
4 43
5 18
5 112
6 7
6 8
6 11
6 12
6 19
6 20
6 71
6 72
6 48
6 87
6 106
6 107
6 17
6 108
7 8
8 24
8 25
9 10
9 36
9 114
10 21
11 12
11 36
11 73
12 57
12 58
13 14
13 15
13 101
14 15
15 26
15 27
15 51
15 52
15 35
15 63
15 74
15 75
15 56
15 96
15 77
15 98
15 70
15 115
15 64
15 117
15 32
15 83
15 42
15 125
15 46
15 129
16 17
16 18
16 43
16 91
17 18
17 108
18 30
18 31
18 44
18 45
18 41
18 48
18 68
18 69
18 27
18 86
18 112
18 28
18 71
18 96
18 113
18 40
18 67
18 90
18 124
19 20
19 43
19 97
20 58
20 63
22 23
23 24
23 108
24 25
24 55
24 56
24 59
24 60
24 61
24 62
24 99
24 100
24 108
24 104
24 109
24 31
24 115
24 121
24 123
24 39
24 118
24 75
24 127
25 43
26 27
26 43
26 62
27 86
28 29
28 71
29 36
29 116
30 31
31 115
32 33
32 83
34 35
34 36
35 36
35 63
36 37
36 38
36 49
36 50
36 73
36 77
36 78
36 83
36 84
36 53
36 74
36 93
36 110
36 114
36 116
37 38
37 43
37 55
39 40
39 118
40 67
41 42
41 43
41 48
42 43
42 125
43 62
43 64
43 65
43 66
43 67
43 88
43 89
43 51
43 90
43 91
43 97
43 101
43 102
43 55
43 94
43 121
43 106
43 114
44 45
44 111
45 46
45 47
46 47
46 129
47 72
47 76
47 52
47 93
47 80
47 94
47 73
47 100
47 68
47 98
47 118
47 119
48 87
49 50
49 109
50 58
50 95
51 52
51 90
52 93
53 54
53 74
54 122
55 56
56 96
57 58
58 79
58 80
58 82
58 92
58 84
58 89
58 95
58 63
59 60
59 102
61 62
64 65
64 117
65 81
66 67
68 69
68 98
69 103
70 115
71 72
72 76
73 100
74 75
75 127
77 78
77 98
79 80
79 85
80 94
81 82
82 92
83 84
84 89
86 120
88 89
90 124
93 110
94 121
96 113
99 100
101 102
104 105
104 109
106 107
106 114
118 119
121 123
125 126
128 129
